set VariabiliMinZero 	:= x2;
set VariabiliMaggZero 	:= x1;
set Variabili 			:= x1, x2;
set VincoliMinori 		:= r1;
set VincoliMaggiori		:= r2;
set VincoliUguali		:= ;
set Vincoli 			:= r1, r2;

param b :=
r1  6
r2  1
;

param c :=
x1   1
x2  -1

;

param a :
	x1  x2   =
r1   2  -1    
r2   1   1  
;